; benchmark generated from python API
(set-info :status unknown)
(declare-fun W_S1_V6 () Bool)
(declare-fun W_S1_V2 () Bool)
(declare-fun W_S1_V1 () Bool)
(declare-fun R_S1_V6 () Bool)
(declare-fun R_S1_V5 () Bool)
(declare-fun R_S1_V2 () Bool)
(declare-fun R_S1_V1 () Bool)
(declare-fun DISJ_W_S1_R_S1 () Bool)
(declare-fun W_S1_V5 () Bool)
(assert
 (let (($x5780 (forall ((V1_0 Int) )(forall ((V2_0 Int) )(forall ((V5_0 Int) )(forall ((V6_0 Int) )(forall ((V4_0 Int) )(forall ((MW_S1_V1 Bool) )(forall ((MW_S1_V2 Bool) )(forall ((MW_S1_V5 Bool) )(forall ((MW_S1_V6 Bool) )(forall ((S1_V1_!1392 Int) )(forall ((S1_V1_!1396 Int) )(forall ((S1_V1_!1400 Int) )(forall ((S1_V2_!1393 Int) )(forall ((S1_V2_!1397 Int) )(forall ((S1_V2_!1401 Int) )(forall ((S1_V5_!1394 Int) )(forall ((S1_V5_!1398 Int) )(forall ((S1_V5_!1402 Int) )(forall ((S1_V6_!1395 Int) )(forall ((S1_V6_!1399 Int) )(forall ((S1_V6_!1403 Int) )(let (($x1113 (and (= (ite MW_S1_V1 S1_V1_!1392 V1_0) (ite MW_S1_V1 S1_V1_!1400 (+ V1_0 V4_0))) (= (ite MW_S1_V2 S1_V2_!1393 V2_0) (ite MW_S1_V2 S1_V2_!1401 V2_0)) (= (ite MW_S1_V5 S1_V5_!1394 V5_0) (ite MW_S1_V5 S1_V5_!1402 V5_0)) (= (ite MW_S1_V6 S1_V6_!1395 V6_0) (ite MW_S1_V6 S1_V6_!1403 V6_0)))))
 (let ((?x4137 (ite MW_S1_V2 S1_V2_!1401 V2_0)))
 (let ((?x5317 (+ V1_0 (* 2 V4_0))))
 (let ((?x299 (- 1)))
 (let ((?x3338 (+ V1_0 V4_0)))
 (let ((?x6056 (ite MW_S1_V1 S1_V1_!1400 ?x3338)))
 (let (($x2170 (<= (ite (<= ?x5317 (ite MW_S1_V2 S1_V2_!1397 V2_0)) ?x5317 (ite MW_S1_V2 S1_V2_!1397 V2_0)) ?x3338)))
 (let ((?x5701 (+ ?x299 (ite (<= ?x3338 (ite MW_S1_V2 S1_V2_!1397 V2_0)) ?x3338 (ite MW_S1_V2 S1_V2_!1397 V2_0)))))
 (let (($x3587 (and (not (<= V2_0 V1_0)) (>= (ite MW_S1_V1 S1_V1_!1392 V1_0) (+ ?x299 (ite MW_S1_V2 S1_V2_!1393 V2_0))) (not (<= (ite (<= ?x3338 V2_0) ?x3338 V2_0) V1_0)) (>= (ite MW_S1_V1 S1_V1_!1396 V1_0) ?x5701) (not (<= (ite MW_S1_V2 S1_V2_!1397 V2_0) ?x3338)) (not $x2170) (>= ?x6056 (+ ?x299 (ite (<= ?x5317 ?x4137) ?x5317 ?x4137))) (>= ?x5317 ?x4137))))
 (let (($x1135 (= S1_V6_!1399 S1_V6_!1403)))
 (let (($x2778 (and (or (not R_S1_V1) (= 0 V4_0)) (or (not R_S1_V2) (= V2_0 (ite MW_S1_V2 S1_V2_!1397 V2_0))) (or (not R_S1_V5) (= V5_0 (ite MW_S1_V5 S1_V5_!1398 V5_0))) (or (not R_S1_V6) (= V6_0 (ite MW_S1_V6 S1_V6_!1399 V6_0))))))
 (let (($x2563 (not $x2778)))
 (let (($x1020 (and (or (not R_S1_V1) (= V4_0 0)) (or (not R_S1_V2) (= (ite MW_S1_V2 S1_V2_!1397 V2_0) V2_0)) (or (not R_S1_V5) (= (ite MW_S1_V5 S1_V5_!1398 V5_0) V5_0)) (or (not R_S1_V6) (= (ite MW_S1_V6 S1_V6_!1399 V6_0) V6_0)))))
 (let (($x803 (not $x1020)))
 (let (($x2528 (and (= S1_V1_!1392 S1_V1_!1396) (or $x2563 (= S1_V1_!1392 S1_V1_!1400)) (or $x2563 (= S1_V1_!1396 S1_V1_!1400)) (= S1_V2_!1393 S1_V2_!1397) (or $x803 (= S1_V2_!1401 S1_V2_!1393)) (or $x803 (= S1_V2_!1401 S1_V2_!1397)) (= S1_V5_!1394 S1_V5_!1398) (or $x2563 (= S1_V5_!1394 S1_V5_!1402)) (or $x2563 (= S1_V5_!1398 S1_V5_!1402)) (or $x2563 (= S1_V6_!1395 S1_V6_!1403)) (= S1_V6_!1399 S1_V6_!1395) (or $x2563 $x1135) (or (not MW_S1_V1) W_S1_V1) (or (not MW_S1_V2) W_S1_V2) (or (not MW_S1_V6) W_S1_V6))))
 (or (not $x2528) (not $x3587) $x1113)))))))))))))))))
 )
 )
 )
 )
 )
 )
 )
 )
 )
 )
 )
 )
 )
 )
 )
 )
 )
 )
 )
 )
 ))
 (let (($x4676 (and W_S1_V6 R_S1_V6)))
 (let (($x4875 (and W_S1_V2 R_S1_V2)))
 (let (($x2486 (and W_S1_V1 R_S1_V1)))
 (let (($x2344 (= DISJ_W_S1_R_S1 (not (or $x2486 $x4875 R_S1_V5 $x4676)))))
 (and W_S1_V5 $x2344 $x5780)))))))
(check-sat)
